Data path: /scratch/opt/lxu/CFLG/benchmarks/random_B
Instance: r_30_0.1_54.txt
Result path: /scratch/opt/lxu/CFLG/results/random_B
Solver: Gurobi
Time limit: 7200
Formulation: LEFPA
Cover: Small
julia --project=. src/main.jl /scratch/opt/lxu/CFLG/benchmarks/random_B r_30_0.1_54.txt /scratch/opt/lxu/CFLG/results/random_B Gurobi 7200 LEFPA Small
The latest version of Julia in the `release` channel is 1.11.6+0.x64.linux.gnu. You currently have `1.11.4+0.x64.linux.gnu` installed. Run:

  juliaup update

in your terminal shell to install Julia 1.11.6+0.x64.linux.gnu and update the `release` channel to that version.
/scratch/opt/lxu/CFLG/benchmarks/random_B Gurobi 7200.0 /scratch/opt/lxu/CFLG/results/random_B r_30_0.1_54.txt LEFPA Small
/scratch/opt/lxu/CFLG/benchmarks/random_B/r_30_0.1_54.txt

 read graph
data loaded


after absorb:25 30

max_piece:12
problem_graph/original graph: node: 27/30 edge: 51/54 dlt: 0.14985539479029872 break_avg_len: 0.6346816720530298 break_max_len: 1.5720943579988345Vbar/V, Ebar/E(24, 27, 48, 51)
Set parameter TokenServer to value "solice01.zib.de"
Set parameter Threads to value 1
Set parameter OutputFlag to value 1
Gurobi Optimizer version 12.0.1 build v12.0.1rc0 (linux64 - "Debian GNU/Linux 12 (bookworm)")

CPU model: Intel(R) Xeon(R) Gold 5222 CPU @ 3.80GHz, instruction set [SSE2|AVX|AVX2|AVX512]
Thread count: 8 physical cores, 16 logical processors, using up to 1 threads

Non-default parameters:
Threads  1

Optimize a model with 78 rows, 153 columns and 255 nonzeros
Model fingerprint: 0x2303591b
Coefficient statistics:
  Matrix range     [1e+00, 1e+00]
  Objective range  [1e+00, 1e+00]
  Bounds range     [1e+00, 1e+00]
  RHS range        [1e+00, 1e+00]
Presolve removed 10 rows and 12 columns
Presolve time: 0.00s
Presolved: 68 rows, 141 columns, 233 nonzeros

Iteration    Objective       Primal Inf.    Dual Inf.      Time
       0    5.1000000e+01   3.100000e+01   0.000000e+00      0s
      57    2.4000000e+01   0.000000e+00   0.000000e+00      0s

Solved in 57 iterations and 0.00 seconds (0.00 work units)
Optimal objective  2.400000000e+01

User-callback calls 136, time in user-callback 0.00 sec
elapsed CPU time: 1.031535 seconds
Set parameter TokenServer to value "solice01.zib.de"
Set parameter Threads to value 1
Set parameter OutputFlag to value 1
Set parameter MIPGap to value 0.0001
Set parameter TimeLimit to value 7198.968465

 more cuts: false 0.14985539479029872 false
is_attach:trueformulation:LEFPA44 7 5

 model loaded

Gurobi Optimizer version 12.0.1 build v12.0.1rc0 (linux64 - "Debian GNU/Linux 12 (bookworm)")

CPU model: Intel(R) Xeon(R) Gold 5222 CPU @ 3.80GHz, instruction set [SSE2|AVX|AVX2|AVX512]
Thread count: 8 physical cores, 16 logical processors, using up to 1 threads

Non-default parameters:
TimeLimit  7198.968465
Threads  1

Optimize a model with 792 rows, 463 columns and 1639 nonzeros
Model fingerprint: 0x285f0a06
Variable types: 129 continuous, 334 integer (334 binary)
Coefficient statistics:
  Matrix range     [1e-03, 1e+00]
  Objective range  [1e+00, 1e+00]
  Bounds range     [1e-02, 2e+00]
  RHS range        [1e-02, 1e+00]
Presolve removed 483 rows and 172 columns
Presolve time: 0.01s
Presolved: 309 rows, 291 columns, 1078 nonzeros
Variable types: 118 continuous, 173 integer (173 binary)
Found heuristic solution: objective 111.0000000
Found heuristic solution: objective 110.0000000
Found heuristic solution: objective 109.0000000

Root relaxation: objective 8.502093e+01, 218 iterations, 0.00 seconds (0.00 work units)

    Nodes    |    Current Node    |     Objective Bounds      |     Work
 Expl Unexpl |  Obj  Depth IntInf | Incumbent    BestBd   Gap | It/Node Time

     0     0   85.02093    0   64  109.00000   85.02093  22.0%     -    0s
H    0     0                     102.0000000   85.02093  16.6%     -    0s
H    0     0                     101.0000000   85.02093  15.8%     -    0s
     0     0   87.16558    0   85  101.00000   87.16558  13.7%     -    0s
H    0     0                      99.0000000   87.25909  11.9%     -    0s
     0     0   87.25909    0   88   99.00000   87.25909  11.9%     -    0s
     0     0   90.14298    0   84   99.00000   90.14298  8.95%     -    0s
     0     0   90.44214    0   85   99.00000   90.44214  8.64%     -    0s
     0     0   90.44687    0   87   99.00000   90.44687  8.64%     -    0s
     0     0   91.94469    0   82   99.00000   91.94469  7.13%     -    0s
H    0     0                      98.0000000   91.98240  6.14%     -    0s
     0     0   91.98240    0   82   98.00000   91.98240  6.14%     -    0s
     0     0   91.98240    0   82   98.00000   91.98240  6.14%     -    0s
     0     0   92.35888    0   79   98.00000   92.35888  5.76%     -    0s
     0     0   92.41667    0   74   98.00000   92.41667  5.70%     -    0s
     0     0   92.41976    0   85   98.00000   92.41976  5.69%     -    0s
     0     0   92.58333    0   73   98.00000   92.58333  5.53%     -    0s
     0     0   92.58333    0   76   98.00000   92.58333  5.53%     -    0s
     0     0   92.58333    0   73   98.00000   92.58333  5.53%     -    0s
     0     0   92.58333    0   54   98.00000   92.58333  5.53%     -    0s
     0     2   92.83333    0   52   98.00000   92.83333  5.27%     -    0s
*   48    33              32      97.0000000   92.83333  4.30%   8.8    0s
  7595  2890     cutoff   34        97.00000   94.14382  2.94%  18.4    5s
 12056  4046     cutoff   44        97.00000   94.50000  2.58%  19.0   10s
 18567  3957   95.00000   33   23   97.00000   95.00000  2.06%  20.1   15s
 25025  4930     cutoff   40        97.00000   95.00000  2.06%  21.2   20s
 31721  6544   95.25344   36   46   97.00000   95.05882  2.00%  21.5   25s
 38433  7725   95.27353   28   47   97.00000   95.14754  1.91%  21.6   30s
 45293  8852     cutoff   41        97.00000   95.25000  1.80%  21.8   35s
 52354  9860   96.00000   39   35   97.00000   95.33333  1.72%  21.8   40s
 59255 10350     cutoff   44        97.00000   95.50000  1.55%  21.8   45s
 65900 11548     cutoff   41        97.00000   95.51224  1.53%  21.8   50s
 72908 12122     cutoff   38        97.00000   95.66667  1.37%  21.7   55s
 79729 12586     cutoff   38        97.00000   95.91622  1.12%  21.6   60s
 86712 11329     cutoff   38        97.00000   96.00000  1.03%  21.6   65s
 93218 10199     cutoff   39        97.00000   96.00000  1.03%  21.5   70s
 99598  9023     cutoff   46        97.00000   96.00000  1.03%  21.5   75s
 105683  8006   96.00000   45    6   97.00000   96.00000  1.03%  21.6   80s
 111976  7143     cutoff   43        97.00000   96.00000  1.03%  21.6   85s
 118537  6333   96.00000   37   16   97.00000   96.00000  1.03%  21.6   90s
 124825  5619     cutoff   40        97.00000   96.00000  1.03%  21.6   95s
 131273  4954   96.00000   41   23   97.00000   96.00000  1.03%  21.6  100s
 137036  4279     cutoff   43        97.00000   96.00000  1.03%  21.6  105s
 143532  3658   96.00000   38   22   97.00000   96.00000  1.03%  21.6  110s
 149094  3165   96.00000   44    6   97.00000   96.00000  1.03%  21.6  115s
 155414  2547     cutoff   40        97.00000   96.00000  1.03%  21.7  120s
 161744  2141     cutoff   46        97.00000   96.00000  1.03%  21.7  125s
 168040  1774   96.00000   41   29   97.00000   96.00000  1.03%  21.7  130s
 174095  1371   96.00000   40   34   97.00000   96.00000  1.03%  21.8  135s
 180009  1009     cutoff   48        97.00000   96.00000  1.03%  21.8  140s
 186036   663   96.00000   36   26   97.00000   96.00000  1.03%  21.9  145s
 191858   365   96.00000   41   32   97.00000   96.00000  1.03%  22.0  150s
 196759   136   96.00000   40   66   97.00000   96.00000  1.03%  22.1  155s

Cutting planes:
  Gomory: 26
  Cover: 248
  Implied bound: 46
  Clique: 1
  MIR: 136
  Mixing: 16
  StrongCG: 5
  Flow cover: 369
  GUB cover: 6
  Inf proof: 29
  Zero half: 39
  RLT: 42
  Relax-and-lift: 24
  BQP: 3

Explored 199614 nodes (4422915 simplex iterations) in 157.66 seconds (127.60 work units)
Thread count was 1 (of 16 available processors)

Solution count 9: 97 97 98 ... 111

Optimal solution found (tolerance 1.00e-04)
Best objective 9.700000000000e+01, best bound 9.700000000000e+01, gap 0.0000%

User-callback calls 450601, time in user-callback 0.23 sec

 sepatime0 0 0
97.0
Stat(MathOptInterface.OPTIMAL, 97.0, 97.0, 0.0, 0.0, 1.031535, 157.6594500541687, 199614, Main.CFLG.LEFPA, "", #undef)
